
Gurobi 13.0.2 (win64) logging started Thu Jul 23 13:14:50 2026

Set parameter LogFile to value "E:\codes\ExactEBRP\results\gf_gurobi_performance_recovery_round29\stage0_runs\sentinel__correctness_sentinel__moderate_seed4301__c3_replica__120s\external\native_logs\R.0.0.0.1.1.0.1.1_lp.gurobi.log"
Gurobi Optimizer version 13.0.2 build v13.0.2rc1 (win64 - Windows 10.0 (19045.2))

CPU model: 12th Gen Intel(R) Core(TM) i7-12700KF, instruction set [SSE2|AVX|AVX2]
Thread count: 12 physical cores, 20 logical processors, using up to 1 threads

Non-default parameters:
TimeLimit  6.3462924100000009e+01
MIPGap  0
MIPGapAbs  0
LogToConsole  0
Threads  1

Optimize a model with 11911 rows, 3376 columns and 67353 nonzeros (Min)
Model fingerprint: 0xa57178dd
Model has 21 linear objective coefficients
Coefficient statistics:
  Matrix range     [2e-03, 2e+04]
  Objective range  [8e-03, 1e+00]
  Bounds range     [2e-03, 5e+01]
  RHS range        [2e-03, 5e+04]

Presolve removed 570 rows and 104 columns
Presolve time: 0.04s
Presolved: 11341 rows, 3444 columns, 65185 nonzeros

Iteration    Objective       Primal Inf.    Dual Inf.      Time
       0    2.0332320e-03   1.112859e+02   0.000000e+00      0s

Extra simplex iterations after uncrush: 1
    1784    4.6568972e-03   0.000000e+00   0.000000e+00      0s

Solved in 1784 iterations and 0.15 seconds (0.44 work units)
Optimal objective  4.656897167e-03

User-callback calls 1934, time in user-callback 0.00 sec
